NAME :  IRP
COMMENT : 
TYPE :  CVRP
DIMENSION : 	14
EDGE_WEIGHT_TYPE : 	EUC_2D
CAPACITY : 	729
NODE_COORD_SECTION
1	436	498
2	260	44
3	320	11
4	134	326
5	324	196
6	199	415
7	435	304
8	429	76
9	450	29
10	71	355
11	14	310
12	268	146
13	442	444
14	454	428
DEMAND_SECTION
1	0
2	90
3	152
4	140
5	48
6	48
7	166
8	69
9	210
10	270
11	66
12	54
13	30
14	198
DEPOT_SECTION
	1
	-1
EOF
